169
121
Academic license - for non-commercial use only
Optimize a model with 20479 rows, 9244 columns and 49858060 nonzeros
Variable types: 0 continuous, 9244 integer (9244 binary)
Coefficient statistics:
  Matrix range     [1e+00, 1e+00]
  Objective range  [2e+04, 1e+05]
  Bounds range     [1e+00, 1e+00]
  RHS range        [1e+00, 1e+00]
Found heuristic solution: objective 190002
Presolve removed 462 rows and 0 columns (presolve time = 10s) ...
Presolve removed 462 rows and 0 columns (presolve time = 18s) ...
Presolve removed 462 rows and 0 columns (presolve time = 36s) ...
Presolve removed 462 rows and 0 columns (presolve time = 40s) ...
Presolve removed 462 rows and 0 columns (presolve time = 45s) ...
Presolve removed 462 rows and 0 columns (presolve time = 50s) ...
Presolve removed 462 rows and 0 columns (presolve time = 55s) ...
Presolve removed 462 rows and 0 columns (presolve time = 60s) ...
Presolve removed 462 rows and 0 columns (presolve time = 65s) ...
Presolve removed 462 rows and 0 columns (presolve time = 70s) ...
Presolve removed 462 rows and 0 columns (presolve time = 75s) ...
Presolve removed 462 rows and 0 columns (presolve time = 80s) ...
Presolve removed 462 rows and 0 columns (presolve time = 85s) ...
Presolve removed 462 rows and 0 columns (presolve time = 90s) ...
Presolve removed 462 rows and 0 columns (presolve time = 95s) ...
Presolve removed 462 rows and 0 columns (presolve time = 100s) ...
Presolve removed 462 rows and 0 columns (presolve time = 105s) ...
Presolve removed 462 rows and 0 columns (presolve time = 110s) ...
Presolve removed 462 rows and 0 columns (presolve time = 115s) ...
Presolve removed 462 rows and 0 columns (presolve time = 120s) ...
Presolve removed 462 rows and 0 columns (presolve time = 126s) ...
Presolve removed 462 rows and 0 columns (presolve time = 130s) ...
Presolve removed 462 rows and 0 columns (presolve time = 135s) ...
Presolve removed 462 rows and 0 columns (presolve time = 140s) ...
Presolve removed 462 rows and 0 columns (presolve time = 145s) ...
Presolve removed 462 rows and 0 columns (presolve time = 150s) ...
Presolve removed 462 rows and 0 columns (presolve time = 155s) ...
Presolve removed 462 rows and 0 columns (presolve time = 160s) ...
Presolve removed 462 rows and 0 columns (presolve time = 165s) ...
Presolve removed 462 rows and 0 columns (presolve time = 170s) ...
Presolve removed 462 rows and 0 columns (presolve time = 175s) ...
Presolve removed 462 rows and 0 columns (presolve time = 180s) ...
Presolve removed 462 rows and 0 columns (presolve time = 185s) ...
Presolve removed 462 rows and 0 columns (presolve time = 190s) ...
Presolve removed 462 rows and 0 columns (presolve time = 196s) ...
Presolve removed 462 rows and 0 columns (presolve time = 200s) ...
Presolve removed 462 rows and 0 columns (presolve time = 205s) ...
Presolve removed 462 rows and 0 columns (presolve time = 210s) ...
Presolve removed 462 rows and 0 columns (presolve time = 215s) ...
Presolve removed 462 rows and 0 columns (presolve time = 220s) ...
Presolve removed 462 rows and 0 columns (presolve time = 226s) ...
Presolve removed 462 rows and 0 columns (presolve time = 230s) ...
Presolve removed 462 rows and 0 columns (presolve time = 235s) ...
Presolve removed 462 rows and 0 columns (presolve time = 240s) ...
Presolve removed 462 rows and 0 columns (presolve time = 245s) ...
Presolve removed 462 rows and 0 columns (presolve time = 250s) ...
Presolve removed 462 rows and 0 columns (presolve time = 255s) ...
Presolve removed 462 rows and 0 columns (presolve time = 260s) ...
Presolve removed 462 rows and 0 columns
Presolve time: 262.90s
Presolved: 20017 rows, 9244 columns, 49841678 nonzeros
Variable types: 0 continuous, 9244 integer (9244 binary)

Root simplex log...

Iteration    Objective       Primal Inf.    Dual Inf.      Time
       0    7.6114468e+07   1.107408e+07   0.000000e+00    267s
    1126    2.5360467e+05   2.139450e+04   0.000000e+00    270s
    3140    2.4367105e+05   0.000000e+00   0.000000e+00    275s

Root relaxation: objective 2.436710e+05, 3140 iterations, 9.17 seconds
Total elapsed time = 284.64s
Total elapsed time = 286.16s

    Nodes    |    Current Node    |     Objective Bounds      |     Work
 Expl Unexpl |  Obj  Depth IntInf | Incumbent    BestBd   Gap | It/Node Time

     0     0 243671.050    0   82 190002.000 243671.050  28.2%     -  287s
H    0     0                    238974.00000 243671.050  1.97%     -  296s
     0     0 243319.121    0   93 238974.000 243319.121  1.82%     -  714s
     0     0 243319.121    0  256 238974.000 243319.121  1.82%     -  884s
     0     0 243301.125    0  361 238974.000 243301.125  1.81%     -  885s
     0     0 243291.843    0  376 238974.000 243291.843  1.81%     -  886s
     0     0 243291.772    0  380 238974.000 243291.772  1.81%     -  886s
     0     0 243277.554    0  399 238974.000 243277.554  1.80%     -  886s
     0     0 243260.807    0  398 238974.000 243260.807  1.79%     -  886s
H    0     0                    240143.00000 243260.807  1.30%     -  886s
     0     0 243260.807    0  389 240143.000 243260.807  1.30%     -  889s
     0     0 243260.807    0  266 240143.000 243260.807  1.30%     -  893s
     0     0 243196.491    0  295 240143.000 243196.491  1.27%     -  894s
     0     0 243019.880    0  318 240143.000 243019.880  1.20%     -  894s
     0     0 243007.543    0  292 240143.000 243007.543  1.19%     -  894s
     0     0 242925.190    0  377 240143.000 242925.190  1.16%     -  894s
     0     0 242907.209    0  427 240143.000 242907.209  1.15%     -  894s
     0     0 242900.380    0  411 240143.000 242900.380  1.15%     -  894s
     0     0 242765.385    0  404 240143.000 242765.385  1.09%     -  894s
     0     0 240289.980    0  369 240143.000 240289.980  0.06%     -  895s
     0     0 240289.980    0  376 240143.000 240289.980  0.06%     -  896s
     0     0 240289.980    0  376 240143.000 240289.980  0.06%     -  897s
     0     2 240289.980    0  374 240143.000 240289.980  0.06%     -  898s
    12     2 240289.980    5  336 240143.000 240289.980  0.06%   192  900s

Cutting planes:
  Gomory: 6
  Implied bound: 7
  Clique: 5
  MIR: 6
  Zero half: 1

Explored 73 nodes (31074 simplex iterations) in 901.40 seconds
Thread count was 8 (of 8 available processors)

Solution count 3: 240143 238974 190002 

Optimal solution found (tolerance 1.00e-04)
Best objective 2.401430000000e+05, best bound 2.401430000000e+05, gap 0.0000%
Obj: 240143
